c Result of efficient AIG-to-CNF conversion using package CNF
p cnf 412 1402
2 3 -44 0
2 -3 44 0
-2 -3 -44 0
-2 3 44 0
3 -407 4 -31 0
3 407 4 -16 0
-3 -4 0
-3 -407 31 0
-3 407 16 0
-4 5 11 14 0
4 -5 0
4 -11 0
4 -14 0
-5 6 7 9 10 0
5 -10 0
5 -6 0
5 -9 0
5 -7 0
-6 396 397 0
6 -396 0
6 -397 0
-7 401 402 403 8 0
7 -8 0
7 -403 0
7 -401 0
7 -402 0
-8 404 405 406 0
8 -404 0
8 -406 0
8 -405 0
-9 398 399 400 0
9 -398 0
9 -400 0
9 -399 0
-10 392 393 394 395 0
10 -395 0
10 -394 0
10 -392 0
10 -393 0
-11 385 12 0
11 -385 0
11 -12 0
-12 382 383 384 13 0
12 -13 0
12 -384 0
12 -382 0
12 -383 0
-13 380 381 0
13 -380 0
13 -381 0
-14 386 387 15 0
14 -15 0
14 -387 0
14 -386 0
-15 388 389 390 391 0
15 -391 0
15 -390 0
15 -388 0
15 -389 0
-16 408 17 0
-16 -408 24 0
16 -408 -24 0
16 408 -17 0
-17 409 18 0
-17 -409 21 0
17 -409 -21 0
17 409 -18 0
-18 410 20 0
-18 -410 19 0
18 -410 -19 0
18 410 -20 0
19 -374 411 0
19 -373 -411 0
-19 374 411 0
-19 373 -411 0
20 -376 411 0
20 -375 -411 0
-20 376 411 0
-20 375 -411 0
21 410 -22 0
21 -410 -23 0
-21 -410 23 0
-21 410 22 0
22 -372 411 0
22 -371 -411 0
-22 372 411 0
-22 371 -411 0
23 -370 411 0
23 -369 -411 0
-23 370 411 0
-23 369 -411 0
24 409 -25 0
24 -409 -28 0
-24 -409 28 0
-24 409 25 0
25 410 -26 0
25 -410 -27 0
-25 -410 27 0
-25 410 26 0
26 -368 411 0
26 -367 -411 0
-26 368 411 0
-26 367 -411 0
27 -366 411 0
27 -365 -411 0
-27 366 411 0
-27 365 -411 0
28 410 -29 0
28 -410 -30 0
-28 -410 30 0
-28 410 29 0
29 -364 411 0
29 -363 -411 0
-29 364 411 0
-29 363 -411 0
30 -362 411 0
30 -361 -411 0
-30 362 411 0
-30 361 -411 0
31 408 -32 0
31 -408 -39 0
-31 -408 39 0
-31 408 32 0
32 409 -33 0
32 -409 -36 0
-32 -409 36 0
-32 409 33 0
33 410 -34 0
33 -410 -35 0
-33 -410 35 0
-33 410 34 0
34 -360 411 0
34 -359 -411 0
-34 360 411 0
-34 359 -411 0
35 -358 411 0
35 -357 -411 0
-35 358 411 0
-35 357 -411 0
36 410 -37 0
36 -410 -38 0
-36 -410 38 0
-36 410 37 0
37 -356 411 0
37 -355 -411 0
-37 356 411 0
-37 355 -411 0
38 -354 411 0
38 -353 -411 0
-38 354 411 0
-38 353 -411 0
39 409 -40 0
39 -409 -43 0
-39 -409 43 0
-39 409 40 0
40 410 -41 0
40 -410 -42 0
-40 -410 42 0
-40 410 41 0
41 -352 411 0
41 -351 -411 0
-41 352 411 0
-41 351 -411 0
42 -350 411 0
42 -349 -411 0
-42 350 411 0
-42 349 -411 0
43 -348 410 411 0
-43 348 0
-43 -411 0
-43 -410 0
44 4 -198 0
44 4 -45 0
44 4 -258 0
-44 -4 0
-44 45 198 258 0
-45 -410 46 160 0
-45 410 152 160 0
45 -160 0
45 410 -152 0
45 -410 -46 0
46 -411 47 -137 0
46 411 47 -54 0
-46 -47 0
-46 -411 137 0
-46 411 54 0
-47 403 12 48 53 0
47 -403 0
47 -53 0
47 -48 0
47 -12 0
-48 407 8 49 50 0
48 -407 0
48 -50 0
48 -49 0
48 -8 0
-49 401 402 0
49 -401 0
49 -402 0
-50 385 15 51 52 0
50 -385 0
50 -52 0
50 -51 0
50 -15 0
-51 386 387 0
51 -386 0
51 -387 0
-52 392 393 394 0
52 -392 0
52 -394 0
52 -393 0
-53 395 396 397 9 0
53 -9 0
53 -397 0
53 -395 0
53 -396 0
54 408 -55 0
-54 -408 0
-54 55 0
55 409 -56 0
55 -409 -117 0
-55 -409 117 0
-55 409 56 0
56 410 -57 0
56 -410 -100 0
-56 -410 100 0
-56 410 57 0
57 411 -58 0
57 -411 -72 0
-57 -411 72 0
-57 411 58 0
58 -407 4 -66 0
58 407 4 -59 0
-58 -4 0
-58 -407 66 0
-58 407 59 0
-59 408 60 0
-59 -408 63 0
59 -408 -63 0
59 408 -60 0
-60 409 62 0
-60 -409 61 0
60 -409 -61 0
60 409 -62 0
61 410 -23 0
61 -410 -26 0
-61 -410 26 0
-61 410 23 0
62 410 -19 0
62 -410 -22 0
-62 -410 22 0
-62 410 19 0
63 409 -64 0
63 -409 -65 0
-63 -409 65 0
-63 409 64 0
64 410 -27 0
64 -410 -29 0
-64 -410 29 0
-64 410 27 0
65 410 -30 0
65 -410 -34 0
-65 -410 34 0
-65 410 30 0
66 408 -67 0
66 -408 -70 0
-66 -408 70 0
-66 408 67 0
67 409 -68 0
67 -409 -69 0
-67 -409 69 0
-67 409 68 0
68 410 -35 0
68 -410 -37 0
-68 -410 37 0
-68 410 35 0
69 410 -38 0
69 -410 -41 0
-69 -410 41 0
-69 410 38 0
70 409 -71 0
-70 -409 0
-70 71 0
71 410 -42 0
71 -348 -410 411 0
-71 410 42 0
-71 -410 -411 0
-71 348 -410 0
72 -407 4 -88 0
72 407 4 -73 0
-72 -4 0
-72 -407 88 0
-72 407 73 0
-73 408 74 0
-73 -408 81 0
73 -408 -81 0
73 408 -74 0
-74 409 78 0
-74 -409 75 0
74 -409 -75 0
74 409 -78 0
75 410 -76 0
75 -410 -77 0
-75 -410 77 0
-75 410 76 0
76 -371 411 0
76 -370 -411 0
-76 371 411 0
-76 370 -411 0
77 -369 411 0
77 -368 -411 0
-77 369 411 0
-77 368 -411 0
78 410 -79 0
78 -410 -80 0
-78 -410 80 0
-78 410 79 0
79 -375 411 0
79 -374 -411 0
-79 375 411 0
-79 374 -411 0
80 -373 411 0
80 -372 -411 0
-80 373 411 0
-80 372 -411 0
81 409 -82 0
81 -409 -85 0
-81 -409 85 0
-81 409 82 0
82 410 -83 0
82 -410 -84 0
-82 -410 84 0
-82 410 83 0
83 -367 411 0
83 -366 -411 0
-83 367 411 0
-83 366 -411 0
84 -365 411 0
84 -364 -411 0
-84 365 411 0
-84 364 -411 0
85 410 -86 0
85 -410 -87 0
-85 -410 87 0
-85 410 86 0
86 -363 411 0
86 -362 -411 0
-86 363 411 0
-86 362 -411 0
87 -361 411 0
87 -360 -411 0
-87 361 411 0
-87 360 -411 0
88 408 -89 0
88 -408 -96 0
-88 -408 96 0
-88 408 89 0
89 409 -90 0
89 -409 -93 0
-89 -409 93 0
-89 409 90 0
90 410 -91 0
90 -410 -92 0
-90 -410 92 0
-90 410 91 0
91 -359 411 0
91 -358 -411 0
-91 359 411 0
-91 358 -411 0
92 -357 411 0
92 -356 -411 0
-92 357 411 0
-92 356 -411 0
93 410 -94 0
93 -410 -95 0
-93 -410 95 0
-93 410 94 0
94 -355 411 0
94 -354 -411 0
-94 355 411 0
-94 354 -411 0
95 -353 411 0
95 -352 -411 0
-95 353 411 0
-95 352 -411 0
96 409 -97 0
-96 -409 0
-96 97 0
97 410 -98 0
97 -410 -99 0
-97 -410 99 0
-97 410 98 0
98 -351 411 0
98 -350 -411 0
-98 351 411 0
-98 350 -411 0
99 -349 411 0
99 -348 -411 0
-99 349 411 0
-99 348 -411 0
100 411 -3 0
100 -411 -101 0
-100 -411 101 0
-100 411 3 0
101 -407 4 -110 0
101 407 4 -102 0
-101 -4 0
-101 -407 110 0
-101 407 102 0
-102 408 103 0
-102 -408 107 0
102 -408 -107 0
102 408 -103 0
-103 409 104 0
-103 -409 106 0
103 -409 -106 0
103 409 -104 0
-104 410 105 0
-104 -410 79 0
104 -410 -79 0
104 410 -105 0
105 -377 411 0
105 -376 -411 0
-105 377 411 0
-105 376 -411 0
106 -410 -76 0
106 410 -80 0
-106 410 80 0
-106 -410 76 0
107 409 -108 0
107 -409 -109 0
-107 -409 109 0
-107 409 108 0
108 410 -77 0
108 -410 -83 0
-108 -410 83 0
-108 410 77 0
109 410 -84 0
109 -410 -86 0
-109 -410 86 0
-109 410 84 0
110 408 -111 0
110 -408 -114 0
-110 -408 114 0
-110 408 111 0
111 409 -112 0
111 -409 -113 0
-111 -409 113 0
-111 409 112 0
112 410 -87 0
112 -410 -91 0
-112 -410 91 0
-112 410 87 0
113 410 -92 0
113 -410 -94 0
-113 -410 94 0
-113 410 92 0
114 409 -115 0
114 -409 -116 0
-114 -409 116 0
-114 409 115 0
115 410 -95 0
115 -410 -98 0
-115 -410 98 0
-115 410 95 0
116 -348 410 -411 0
116 -349 410 411 0
-116 -410 0
-116 348 -411 0
-116 349 411 0
117 410 -118 0
-117 -410 0
-117 118 0
118 411 -119 0
118 -411 -128 0
-118 -411 128 0
-118 411 119 0
119 -407 4 -125 0
119 407 4 -120 0
-119 -4 0
-119 -407 125 0
-119 407 120 0
-120 408 121 0
-120 -408 124 0
120 -408 -124 0
120 408 -121 0
-121 -409 62 0
-121 409 122 0
121 -409 -62 0
121 409 -122 0
-122 410 123 0
-122 -410 20 0
122 -410 -20 0
122 410 -123 0
123 -378 411 0
123 -377 -411 0
-123 378 411 0
-123 377 -411 0
124 409 -61 0
124 -409 -64 0
-124 -409 64 0
-124 409 61 0
125 408 -126 0
125 -408 -127 0
-125 -408 127 0
-125 408 126 0
126 409 -65 0
126 -409 -68 0
-126 -409 68 0
-126 409 65 0
127 409 -69 0
127 -409 -71 0
-127 -409 71 0
-127 409 69 0
128 -407 4 -134 0
128 407 4 -129 0
-128 -4 0
-128 -407 134 0
-128 407 129 0
-129 408 130 0
-129 -408 133 0
129 -408 -133 0
129 408 -130 0
-130 -409 78 0
-130 409 131 0
130 -409 -78 0
130 409 -131 0
-131 410 132 0
-131 -410 105 0
131 -410 -105 0
131 410 -132 0
132 -379 411 0
132 -378 -411 0
-132 379 411 0
-132 378 -411 0
133 409 -75 0
133 -409 -82 0
-133 -409 82 0
-133 409 75 0
134 408 -135 0
134 -408 -136 0
-134 -408 136 0
-134 408 135 0
135 409 -85 0
135 -409 -90 0
-135 -409 90 0
-135 409 85 0
136 409 -93 0
136 -409 -97 0
-136 -409 97 0
-136 409 93 0
137 408 -138 0
-137 -408 0
-137 138 0
138 409 -139 0
138 -409 -149 0
-138 -409 149 0
-138 409 139 0
139 410 -140 0
139 -410 -148 0
-139 -410 148 0
-139 410 140 0
140 -411 -58 0
140 411 -141 0
-140 411 141 0
-140 -411 58 0
141 -407 4 -145 0
141 407 4 -142 0
-141 -4 0
-141 -407 145 0
-141 407 142 0
-142 408 143 0
-142 -408 144 0
142 -408 -144 0
142 408 -143 0
-143 -409 108 0
-143 409 106 0
143 409 -106 0
143 -409 -108 0
144 409 -109 0
144 -409 -112 0
-144 -409 112 0
-144 409 109 0
145 408 -146 0
145 -408 -147 0
-145 -408 147 0
-145 408 146 0
146 409 -113 0
146 -409 -115 0
-146 -409 115 0
-146 409 113 0
147 409 -116 0
-147 -409 0
-147 116 0
148 -411 -3 0
148 411 -72 0
-148 411 72 0
-148 -411 3 0
149 410 -150 0
149 -410 -151 0
-149 -410 151 0
-149 410 150 0
150 411 -101 0
150 -411 -119 0
-150 -411 119 0
-150 411 101 0
151 411 -128 0
-151 -411 0
-151 128 0
152 -411 47 -156 0
152 411 47 -153 0
-152 -47 0
-152 -411 156 0
-152 411 153 0
153 408 -154 0
-153 -408 0
-153 154 0
154 409 -155 0
-154 -409 0
-154 155 0
155 410 -100 0
155 -410 -118 0
-155 -410 118 0
-155 410 100 0
156 408 -157 0
-156 -408 0
-156 157 0
157 409 -158 0
157 -409 -159 0
-157 -409 159 0
-157 409 158 0
158 410 -148 0
158 -410 -150 0
-158 -410 150 0
-158 410 148 0
159 410 -151 0
-159 -410 0
-159 151 0
160 -409 -410 -181 0
160 -409 410 -161 0
-160 409 0
-160 -410 181 0
-160 410 161 0
161 -411 47 -173 0
161 411 47 -162 0
-161 -47 0
-161 -411 173 0
-161 411 162 0
162 408 -163 0
-162 -408 0
-162 163 0
163 -409 -155 0
163 409 -164 0
-163 409 164 0
-163 -409 155 0
164 -410 -57 0
164 410 -165 0
-164 410 165 0
-164 -410 57 0
165 -411 -141 0
165 411 -166 0
-165 411 166 0
-165 -411 141 0
166 -407 4 -170 0
166 407 4 -167 0
-166 -4 0
-166 -407 170 0
-166 407 167 0
-167 408 168 0
-167 -408 169 0
167 -408 -169 0
167 408 -168 0
-168 -409 25 0
-168 409 21 0
168 409 -21 0
168 -409 -25 0
169 409 -28 0
169 -409 -33 0
-169 -409 33 0
-169 409 28 0
170 408 -171 0
170 -408 -172 0
-170 -408 172 0
-170 408 171 0
171 409 -36 0
171 -409 -40 0
-171 -409 40 0
-171 409 36 0
172 -348 409 410 411 0
-172 -411 0
-172 -410 0
-172 348 0
-172 -409 0
173 408 -174 0
173 -408 -180 0
-173 -408 180 0
-173 408 174 0
174 -409 -158 0
174 409 -175 0
-174 409 175 0
-174 -409 158 0
175 -410 -140 0
175 410 -176 0
-175 410 176 0
-175 -410 140 0
176 -411 -166 0
176 411 -177 0
-176 411 177 0
-176 -411 166 0
177 -407 4 -179 0
177 407 4 -178 0
-177 -4 0
-177 -407 179 0
-177 407 178 0
178 408 -133 0
178 -408 -135 0
-178 -408 135 0
-178 408 133 0
179 408 -136 0
-179 -408 0
-179 136 0
180 409 -159 0
-180 -409 0
-180 159 0
181 -411 47 -190 0
181 411 47 -182 0
-181 -47 0
-181 -411 190 0
-181 411 182 0
182 408 -183 0
182 -408 -189 0
-182 -408 189 0
-182 408 183 0
183 -409 -56 0
183 409 -184 0
-183 409 184 0
-183 -409 56 0
184 -410 -165 0
184 410 -185 0
-184 410 185 0
-184 -410 165 0
185 -411 -177 0
185 411 -186 0
-185 411 186 0
-185 -411 177 0
186 -407 4 -188 0
186 407 4 -187 0
-186 -4 0
-186 -407 188 0
-186 407 187 0
187 408 -124 0
187 -408 -126 0
-187 -408 126 0
-187 408 124 0
188 408 -127 0
-188 -408 0
-188 127 0
189 409 -117 0
-189 -409 0
-189 117 0
190 408 -191 0
190 -408 -197 0
-190 -408 197 0
-190 408 191 0
191 -409 -139 0
191 409 -192 0
-191 409 192 0
-191 -409 139 0
192 -410 -176 0
192 410 -193 0
-192 410 193 0
-192 -410 176 0
193 -411 -186 0
193 411 -194 0
-193 411 194 0
-193 -411 186 0
194 -407 4 -196 0
194 407 4 -195 0
-194 -4 0
-194 -407 196 0
-194 407 195 0
195 408 -107 0
195 -408 -111 0
-195 -408 111 0
-195 408 107 0
196 408 -114 0
-196 -408 0
-196 114 0
197 409 -149 0
-197 -409 0
-197 149 0
198 -408 -409 -230 0
198 -408 409 -199 0
-198 408 0
-198 -409 230 0
-198 409 199 0
199 410 -200 0
199 -410 -215 0
-199 -410 215 0
-199 410 200 0
200 -411 47 -208 0
200 411 47 -201 0
-200 -47 0
-200 -411 208 0
-200 411 201 0
201 -408 -154 0
201 408 -202 0
-201 408 202 0
-201 -408 154 0
202 -409 -164 0
202 409 -203 0
-202 409 203 0
-202 -409 164 0
203 -410 -185 0
203 410 -204 0
-203 410 204 0
-203 -410 185 0
204 -411 -194 0
204 411 -205 0
-204 411 205 0
-204 -411 194 0
205 -407 4 -207 0
205 407 4 -206 0
-205 -4 0
-205 -407 207 0
-205 407 206 0
206 408 -24 0
206 -408 -32 0
-206 -408 32 0
-206 408 24 0
207 408 -39 0
-207 -408 0
-207 39 0
208 -408 -157 0
208 408 -209 0
-208 408 209 0
-208 -408 157 0
209 -409 -175 0
209 409 -210 0
-209 409 210 0
-209 -409 175 0
210 -410 -193 0
210 410 -211 0
-210 410 211 0
-210 -410 193 0
211 -411 -205 0
211 411 -212 0
-211 411 212 0
-211 -411 205 0
212 -407 4 -214 0
212 407 4 -213 0
-212 -4 0
-212 -407 214 0
-212 407 213 0
213 408 -81 0
213 -408 -89 0
-213 -408 89 0
-213 408 81 0
214 408 -96 0
-214 -408 0
-214 96 0
215 -411 47 -223 0
215 411 47 -216 0
-215 -47 0
-215 -411 223 0
-215 411 216 0
216 -408 -55 0
216 408 -217 0
-216 408 217 0
-216 -408 55 0
217 -409 -184 0
217 409 -218 0
-217 409 218 0
-217 -409 184 0
218 -410 -204 0
218 410 -219 0
-218 410 219 0
-218 -410 204 0
219 -411 -212 0
219 411 -220 0
-219 411 220 0
-219 -411 212 0
220 -407 4 -222 0
220 407 4 -221 0
-220 -4 0
-220 -407 222 0
-220 407 221 0
221 408 -63 0
221 -408 -67 0
-221 -408 67 0
-221 408 63 0
222 408 -70 0
-222 -408 0
-222 70 0
223 -408 -138 0
223 408 -224 0
-223 408 224 0
-223 -408 138 0
224 -409 -192 0
224 409 -225 0
-224 409 225 0
-224 -409 192 0
225 -410 -211 0
225 410 -226 0
-225 410 226 0
-225 -410 211 0
226 -411 -220 0
226 411 -227 0
-226 411 227 0
-226 -411 220 0
227 -407 4 -229 0
227 407 4 -228 0
-227 -4 0
-227 -407 229 0
-227 407 228 0
228 408 -144 0
228 -408 -146 0
-228 -408 146 0
-228 408 144 0
229 408 -147 0
-229 -408 0
-229 147 0
230 410 -231 0
230 -410 -245 0
-230 -410 245 0
-230 410 231 0
231 -411 -239 0
231 411 47 -232 0
-231 -411 239 0
-231 411 232 0
-231 411 -47 0
232 -408 -163 0
232 408 -233 0
-232 408 233 0
-232 -408 163 0
233 -409 -203 0
233 409 -234 0
-233 409 234 0
-233 -409 203 0
234 -410 -219 0
234 410 -235 0
-234 410 235 0
-234 -410 219 0
235 -411 -227 0
235 411 -236 0
-235 411 236 0
-235 -411 227 0
236 -407 4 -238 0
236 407 4 -237 0
-236 -4 0
-236 -407 238 0
-236 407 237 0
237 408 -169 0
237 -408 -171 0
-237 -408 171 0
-237 408 169 0
238 408 -172 0
-238 -408 0
-238 172 0
-239 407 240 0
-239 -408 240 0
-239 180 240 0
239 -240 0
239 -407 408 -180 0
-240 408 241 0
-240 -408 174 0
240 -408 -174 0
240 408 -241 0
241 -409 -210 0
241 409 -242 0
-241 409 242 0
-241 -409 210 0
242 -410 -226 0
242 410 -243 0
-242 410 243 0
-242 -410 226 0
243 -411 -236 0
243 411 -244 0
-243 411 244 0
-243 -411 236 0
244 47 -134 0
-244 -47 0
-244 134 0
245 -411 -252 0
245 411 -246 0
245 -411 -257 0
-245 411 246 0
-245 -411 252 257 0
-246 407 247 0
-246 -408 247 0
-246 189 247 0
246 -247 0
246 -407 408 -189 0
-247 408 248 0
-247 -408 183 0
247 -408 -183 0
247 408 -248 0
248 -409 -218 0
248 409 -249 0
-248 409 249 0
-248 -409 218 0
249 -410 -235 0
249 410 -250 0
-249 410 250 0
-249 -410 235 0
250 -411 -244 0
250 411 -251 0
-250 411 251 0
-250 -411 244 0
251 47 -125 0
-251 -47 0
-251 125 0
-252 408 253 0
-252 -408 191 0
252 -408 -191 0
252 408 -253 0
253 -409 -225 0
253 409 -254 0
-253 409 254 0
-253 -409 225 0
254 -410 -243 0
254 410 -255 0
-254 410 255 0
-254 -410 243 0
255 -411 -251 0
255 411 -256 0
-255 411 256 0
-255 -411 251 0
256 47 -110 0
-256 -47 0
-256 110 0
257 -407 408 -197 0
-257 407 0
-257 -408 0
-257 197 0
258 -407 -408 -312 0
258 -407 408 -259 0
-258 407 0
-258 -408 312 0
-258 408 259 0
259 409 -260 0
259 -409 -286 299 0
-259 -409 286 0
-259 409 260 0
-259 -409 -299 0
260 410 -261 0
260 -410 -274 280 0
-260 -410 274 0
-260 410 261 0
-260 -410 -280 0
261 -411 -268 0
261 411 -262 0
261 -411 -273 0
-261 411 262 0
-261 -411 268 273 0
-262 -408 202 267 0
-262 408 263 267 0
262 -267 0
262 408 -263 0
262 -408 -202 0
263 -409 -234 0
263 409 -264 0
-263 409 264 0
-263 -409 234 0
264 -410 -250 0
264 410 -265 0
-264 410 265 0
-264 -410 250 0
265 -411 -256 0
265 411 -266 0
-265 411 266 0
-265 -411 256 0
266 -31 47 0
-266 31 0
-266 -47 0
267 -407 -153 0
-267 407 0
-267 153 0
-268 408 269 0
-268 -408 209 0
268 -408 -209 0
268 408 -269 0
269 -409 -242 0
269 409 -270 0
-269 409 270 0
-269 -409 242 0
270 -410 -255 0
270 410 -271 0
-270 410 271 0
-270 -410 255 0
271 -411 -266 0
271 411 -272 0
-271 411 272 0
-271 -411 266 0
272 47 -88 0
-272 -47 0
-272 88 0
273 -407 -156 0
-273 407 0
-273 156 0
-274 407 411 275 0
-274 411 54 275 0
274 -275 0
274 -411 0
274 -407 -54 0
-275 408 276 0
-275 -408 217 0
275 -408 -217 0
275 408 -276 0
276 -409 -249 0
276 409 -277 0
-276 409 277 0
-276 -409 249 0
277 -410 -265 0
277 410 -278 0
-277 410 278 0
-277 -410 265 0
278 -411 -272 0
278 411 -279 0
-278 411 279 0
-278 -411 272 0
279 47 -66 0
-279 -47 0
-279 66 0
280 407 -411 281 0
280 -411 137 281 0
-280 -281 0
-280 411 0
-280 -407 -137 0
-281 408 282 0
-281 -408 224 0
281 -408 -224 0
281 408 -282 0
282 -409 -254 0
282 409 -283 0
-282 409 283 0
-282 -409 254 0
283 -410 -271 0
283 410 -284 0
-283 410 284 0
-283 -410 271 0
284 -411 -279 0
284 411 -285 0
-284 411 285 0
-284 -411 279 0
285 47 -145 0
-285 -47 0
-285 145 0
-286 410 -411 293 0
-286 410 411 287 0
286 -410 0
286 -411 -293 0
286 411 -287 0
-287 -408 233 292 0
-287 408 288 292 0
287 -292 0
287 408 -288 0
287 -408 -233 0
288 -409 -264 0
288 409 -289 0
-288 409 289 0
-288 -409 264 0
289 -410 -278 0
289 410 -290 0
-289 410 290 0
-289 -410 278 0
290 -411 -285 0
290 411 -291 0
-290 411 291 0
-290 -411 285 0
291 47 -170 0
-291 -47 0
-291 170 0
292 -407 -162 0
-292 407 0
-292 162 0
-293 241 294 298 0
-293 408 294 298 0
293 -294 0
293 -298 0
293 -408 -241 0
-294 409 295 0
-294 -409 270 0
294 -409 -270 0
294 409 -295 0
295 -410 -284 0
295 410 -296 0
-295 410 296 0
-295 -410 284 0
296 -411 -291 0
296 411 -297 0
-296 411 297 0
-296 -411 291 0
297 47 -179 0
-297 -47 0
-297 179 0
298 -407 -173 0
-298 407 0
-298 173 0
299 -410 -411 306 0
299 -410 411 300 0
-299 410 0
-299 -411 -306 0
-299 411 -300 0
-300 248 301 305 0
-300 408 301 305 0
300 -301 0
300 -305 0
300 -408 -248 0
-301 409 302 0
-301 -409 277 0
301 -409 -277 0
301 409 -302 0
302 -410 -290 0
302 410 -303 0
-302 410 303 0
-302 -410 290 0
303 -411 -297 0
303 411 -304 0
-303 411 304 0
-303 -411 297 0
304 47 -188 0
-304 -47 0
-304 188 0
305 -407 -182 0
-305 407 0
-305 182 0
-306 253 307 311 0
-306 408 307 311 0
306 -307 0
306 -311 0
306 -408 -253 0
-307 409 308 0
-307 -409 283 0
307 -409 -283 0
307 409 -308 0
308 -410 -296 0
308 410 -309 0
-308 410 309 0
-308 -410 296 0
309 -411 -304 0
309 411 -310 0
-309 411 310 0
-309 -411 304 0
310 47 -196 0
-310 -47 0
-310 196 0
311 -407 -190 0
-311 407 0
-311 190 0
312 409 -313 0
312 -409 410 -342 0
-312 -409 -410 0
-312 409 313 0
-312 -409 342 0
313 410 -314 0
313 -410 -330 336 0
-313 -410 330 0
-313 410 314 0
-313 -410 -336 0
314 -411 -321 0
314 411 -315 0
314 -411 -329 0
-314 411 315 0
-314 -411 321 329 0
-315 263 316 320 0
-315 408 316 320 0
315 -316 0
315 -320 0
315 -408 -263 0
-316 409 317 0
-316 -409 289 0
316 -409 -289 0
316 409 -317 0
317 -410 -303 0
317 410 -318 0
-317 410 318 0
-317 -410 303 0
318 -411 -310 0
318 411 -319 0
-318 411 319 0
-318 -411 310 0
319 47 -207 0
-319 -47 0
-319 207 0
320 -407 -201 0
-320 407 0
-320 201 0
-321 409 322 328 0
-321 295 322 328 0
321 -328 0
321 -322 0
321 -409 -295 0
322 -410 -309 0
322 410 -323 0
-322 410 323 0
-322 -410 309 0
323 -411 -319 0
323 411 -324 0
-323 411 324 0
-323 -411 319 0
324 -214 325 326 0
-324 214 0
-324 -325 0
-324 -326 0
-325 386 11 0
325 -386 0
325 -11 0
-326 407 52 327 0
326 -327 0
326 -52 0
326 -407 0
-327 387 7 15 53 0
327 -387 0
327 -53 0
327 -15 0
327 -7 0
328 -408 -269 0
-328 408 0
-328 269 0
329 -407 -208 0
-329 407 0
-329 208 0
-330 407 411 331 0
-330 411 216 331 0
330 -331 0
330 -411 0
330 -407 -216 0
-331 302 332 335 0
-331 409 332 335 0
331 -332 0
331 -335 0
331 -409 -302 0
-332 410 333 0
-332 -410 318 0
332 -410 -318 0
332 410 -333 0
333 -411 -324 0
333 411 -334 0
-333 411 334 0
-333 -411 324 0
334 -222 325 326 0
-334 222 0
-334 -325 0
-334 -326 0
335 -408 -276 0
-335 408 0
-335 276 0
336 407 -411 337 0
336 -411 223 337 0
-336 -337 0
-336 411 0
-336 -407 -223 0
-337 308 338 341 0
-337 409 338 341 0
337 -338 0
337 -341 0
337 -409 -308 0
-338 -411 334 339 0
-338 411 339 340 0
338 -339 0
338 411 -340 0
338 -411 -334 0
339 -410 -323 0
-339 410 0
-339 323 0
340 -229 325 326 0
-340 229 0
-340 -325 0
-340 -326 0
341 -408 -282 0
-341 408 0
-341 282 0
342 411 -343 0
342 -407 411 -232 0
-342 -411 0
-342 407 343 0
-342 232 343 0
-343 409 344 347 0
-343 317 344 347 0
343 -347 0
343 -344 0
343 -409 -317 0
344 -410 -333 0
344 410 -345 0
-344 410 345 0
-344 -410 333 0
345 -411 -340 0
345 411 11 -346 0
-345 -411 340 0
-345 411 -11 0
-345 411 346 0
346 407 5 14 -238 0
-346 -407 0
-346 238 0
-346 -14 0
-346 -5 0
347 -408 -288 0
-347 408 0
-347 288 0
-412 0
2 0

